139
100
38
64
39
13
6
20
30
37
35
19
57
22
7
24
53
8
1
21
42
70
9
11
46
5
13
12
57
27
23
40
15
9
23
33
71
21
46
40
14
23
19
19
37
55
15
1
63
27
4
31
47
67
43
31
32
27
3
14
44
4
23
61
25
5
33
34
19
63
60
8
24
23
22
73
50
25
54
3
71
9
46
23
29
37
59
21
32
68
56
44
9
44
6
52
1
54
23
11
8
58
47
41
52
10
45
37
13
17
22
39
40
42
4
73
58
15
41
55
43
21
56
54
24
33
5
2
54
30
10
27
45
39
19
72
31
59
1
68
63
